NAME: GP0_1006.hcp
COMMENT: 
TYPE: HCP
DIMENSION: 1006
EDGE_DATA_FORMAT : EDGE_LIST
EDGE_DATA_SECTION
1 2
1 503
1 504
2 1
2 3
2 505
3 2
3 4
3 506
4 3
4 5
4 507
5 4
5 6
5 508
6 5
6 7
6 509
7 6
7 8
7 510
8 7
8 9
8 511
9 8
9 10
9 512
10 9
10 11
10 513
11 10
11 12
11 514
12 11
12 13
12 515
13 12
13 14
13 516
14 13
14 15
14 517
15 14
15 16
15 518
16 15
16 17
16 519
17 16
17 18
17 520
18 17
18 19
18 521
19 18
19 20
19 522
20 19
20 21
20 523
21 20
21 22
21 524
22 21
22 23
22 525
23 22
23 24
23 526
24 23
24 25
24 527
25 24
25 26
25 528
26 25
26 27
26 529
27 26
27 28
27 530
28 27
28 29
28 531
29 28
29 30
29 532
30 29
30 31
30 533
31 30
31 32
31 534
32 31
32 33
32 535
33 32
33 34
33 536
34 33
34 35
34 537
35 34
35 36
35 538
36 35
36 37
36 539
37 36
37 38
37 540
38 37
38 39
38 541
39 38
39 40
39 542
40 39
40 41
40 543
41 40
41 42
41 544
42 41
42 43
42 545
43 42
43 44
43 546
44 43
44 45
44 547
45 44
45 46
45 548
46 45
46 47
46 549
47 46
47 48
47 550
48 47
48 49
48 551
49 48
49 50
49 552
50 49
50 51
50 553
51 50
51 52
51 554
52 51
52 53
52 555
53 52
53 54
53 556
54 53
54 55
54 557
55 54
55 56
55 558
56 55
56 57
56 559
57 56
57 58
57 560
58 57
58 59
58 561
59 58
59 60
59 562
60 59
60 61
60 563
61 60
61 62
61 564
62 61
62 63
62 565
63 62
63 64
63 566
64 63
64 65
64 567
65 64
65 66
65 568
66 65
66 67
66 569
67 66
67 68
67 570
68 67
68 69
68 571
69 68
69 70
69 572
70 69
70 71
70 573
71 70
71 72
71 574
72 71
72 73
72 575
73 72
73 74
73 576
74 73
74 75
74 577
75 74
75 76
75 578
76 75
76 77
76 579
77 76
77 78
77 580
78 77
78 79
78 581
79 78
79 80
79 582
80 79
80 81
80 583
81 80
81 82
81 584
82 81
82 83
82 585
83 82
83 84
83 586
84 83
84 85
84 587
85 84
85 86
85 588
86 85
86 87
86 589
87 86
87 88
87 590
88 87
88 89
88 591
89 88
89 90
89 592
90 89
90 91
90 593
91 90
91 92
91 594
92 91
92 93
92 595
93 92
93 94
93 596
94 93
94 95
94 597
95 94
95 96
95 598
96 95
96 97
96 599
97 96
97 98
97 600
98 97
98 99
98 601
99 98
99 100
99 602
100 99
100 101
100 603
101 100
101 102
101 604
102 101
102 103
102 605
103 102
103 104
103 606
104 103
104 105
104 607
105 104
105 106
105 608
106 105
106 107
106 609
107 106
107 108
107 610
108 107
108 109
108 611
109 108
109 110
109 612
110 109
110 111
110 613
111 110
111 112
111 614
112 111
112 113
112 615
113 112
113 114
113 616
114 113
114 115
114 617
115 114
115 116
115 618
116 115
116 117
116 619
117 116
117 118
117 620
118 117
118 119
118 621
119 118
119 120
119 622
120 119
120 121
120 623
121 120
121 122
121 624
122 121
122 123
122 625
123 122
123 124
123 626
124 123
124 125
124 627
125 124
125 126
125 628
126 125
126 127
126 629
127 126
127 128
127 630
128 127
128 129
128 631
129 128
129 130
129 632
130 129
130 131
130 633
131 130
131 132
131 634
132 131
132 133
132 635
133 132
133 134
133 636
134 133
134 135
134 637
135 134
135 136
135 638
136 135
136 137
136 639
137 136
137 138
137 640
138 137
138 139
138 641
139 138
139 140
139 642
140 139
140 141
140 643
141 140
141 142
141 644
142 141
142 143
142 645
143 142
143 144
143 646
144 143
144 145
144 647
145 144
145 146
145 648
146 145
146 147
146 649
147 146
147 148
147 650
148 147
148 149
148 651
149 148
149 150
149 652
150 149
150 151
150 653
151 150
151 152
151 654
152 151
152 153
152 655
153 152
153 154
153 656
154 153
154 155
154 657
155 154
155 156
155 658
156 155
156 157
156 659
157 156
157 158
157 660
158 157
158 159
158 661
159 158
159 160
159 662
160 159
160 161
160 663
161 160
161 162
161 664
162 161
162 163
162 665
163 162
163 164
163 666
164 163
164 165
164 667
165 164
165 166
165 668
166 165
166 167
166 669
167 166
167 168
167 670
168 167
168 169
168 671
169 168
169 170
169 672
170 169
170 171
170 673
171 170
171 172
171 674
172 171
172 173
172 675
173 172
173 174
173 676
174 173
174 175
174 677
175 174
175 176
175 678
176 175
176 177
176 679
177 176
177 178
177 680
178 177
178 179
178 681
179 178
179 180
179 682
180 179
180 181
180 683
181 180
181 182
181 684
182 181
182 183
182 685
183 182
183 184
183 686
184 183
184 185
184 687
185 184
185 186
185 688
186 185
186 187
186 689
187 186
187 188
187 690
188 187
188 189
188 691
189 188
189 190
189 692
190 189
190 191
190 693
191 190
191 192
191 694
192 191
192 193
192 695
193 192
193 194
193 696
194 193
194 195
194 697
195 194
195 196
195 698
196 195
196 197
196 699
197 196
197 198
197 700
198 197
198 199
198 701
199 198
199 200
199 702
200 199
200 201
200 703
201 200
201 202
201 704
202 201
202 203
202 705
203 202
203 204
203 706
204 203
204 205
204 707
205 204
205 206
205 708
206 205
206 207
206 709
207 206
207 208
207 710
208 207
208 209
208 711
209 208
209 210
209 712
210 209
210 211
210 713
211 210
211 212
211 714
212 211
212 213
212 715
213 212
213 214
213 716
214 213
214 215
214 717
215 214
215 216
215 718
216 215
216 217
216 719
217 216
217 218
217 720
218 217
218 219
218 721
219 218
219 220
219 722
220 219
220 221
220 723
221 220
221 222
221 724
222 221
222 223
222 725
223 222
223 224
223 726
224 223
224 225
224 727
225 224
225 226
225 728
226 225
226 227
226 729
227 226
227 228
227 730
228 227
228 229
228 731
229 228
229 230
229 732
230 229
230 231
230 733
231 230
231 232
231 734
232 231
232 233
232 735
233 232
233 234
233 736
234 233
234 235
234 737
235 234
235 236
235 738
236 235
236 237
236 739
237 236
237 238
237 740
238 237
238 239
238 741
239 238
239 240
239 742
240 239
240 241
240 743
241 240
241 242
241 744
242 241
242 243
242 745
243 242
243 244
243 746
244 243
244 245
244 747
245 244
245 246
245 748
246 245
246 247
246 749
247 246
247 248
247 750
248 247
248 249
248 751
249 248
249 250
249 752
250 249
250 251
250 753
251 250
251 252
251 754
252 251
252 253
252 755
253 252
253 254
253 756
254 253
254 255
254 757
255 254
255 256
255 758
256 255
256 257
256 759
257 256
257 258
257 760
258 257
258 259
258 761
259 258
259 260
259 762
260 259
260 261
260 763
261 260
261 262
261 764
262 261
262 263
262 765
263 262
263 264
263 766
264 263
264 265
264 767
265 264
265 266
265 768
266 265
266 267
266 769
267 266
267 268
267 770
268 267
268 269
268 771
269 268
269 270
269 772
270 269
270 271
270 773
271 270
271 272
271 774
272 271
272 273
272 775
273 272
273 274
273 776
274 273
274 275
274 777
275 274
275 276
275 778
276 275
276 277
276 779
277 276
277 278
277 780
278 277
278 279
278 781
279 278
279 280
279 782
280 279
280 281
280 783
281 280
281 282
281 784
282 281
282 283
282 785
283 282
283 284
283 786
284 283
284 285
284 787
285 284
285 286
285 788
286 285
286 287
286 789
287 286
287 288
287 790
288 287
288 289
288 791
289 288
289 290
289 792
290 289
290 291
290 793
291 290
291 292
291 794
292 291
292 293
292 795
293 292
293 294
293 796
294 293
294 295
294 797
295 294
295 296
295 798
296 295
296 297
296 799
297 296
297 298
297 800
298 297
298 299
298 801
299 298
299 300
299 802
300 299
300 301
300 803
301 300
301 302
301 804
302 301
302 303
302 805
303 302
303 304
303 806
304 303
304 305
304 807
305 304
305 306
305 808
306 305
306 307
306 809
307 306
307 308
307 810
308 307
308 309
308 811
309 308
309 310
309 812
310 309
310 311
310 813
311 310
311 312
311 814
312 311
312 313
312 815
313 312
313 314
313 816
314 313
314 315
314 817
315 314
315 316
315 818
316 315
316 317
316 819
317 316
317 318
317 820
318 317
318 319
318 821
319 318
319 320
319 822
320 319
320 321
320 823
321 320
321 322
321 824
322 321
322 323
322 825
323 322
323 324
323 826
324 323
324 325
324 827
325 324
325 326
325 828
326 325
326 327
326 829
327 326
327 328
327 830
328 327
328 329
328 831
329 328
329 330
329 832
330 329
330 331
330 833
331 330
331 332
331 834
332 331
332 333
332 835
333 332
333 334
333 836
334 333
334 335
334 837
335 334
335 336
335 838
336 335
336 337
336 839
337 336
337 338
337 840
338 337
338 339
338 841
339 338
339 340
339 842
340 339
340 341
340 843
341 340
341 342
341 844
342 341
342 343
342 845
343 342
343 344
343 846
344 343
344 345
344 847
345 344
345 346
345 848
346 345
346 347
346 849
347 346
347 348
347 850
348 347
348 349
348 851
349 348
349 350
349 852
350 349
350 351
350 853
351 350
351 352
351 854
352 351
352 353
352 855
353 352
353 354
353 856
354 353
354 355
354 857
355 354
355 356
355 858
356 355
356 357
356 859
357 356
357 358
357 860
358 357
358 359
358 861
359 358
359 360
359 862
360 359
360 361
360 863
361 360
361 362
361 864
362 361
362 363
362 865
363 362
363 364
363 866
364 363
364 365
364 867
365 364
365 366
365 868
366 365
366 367
366 869
367 366
367 368
367 870
368 367
368 369
368 871
369 368
369 370
369 872
370 369
370 371
370 873
371 370
371 372
371 874
372 371
372 373
372 875
373 372
373 374
373 876
374 373
374 375
374 877
375 374
375 376
375 878
376 375
376 377
376 879
377 376
377 378
377 880
378 377
378 379
378 881
379 378
379 380
379 882
380 379
380 381
380 883
381 380
381 382
381 884
382 381
382 383
382 885
383 382
383 384
383 886
384 383
384 385
384 887
385 384
385 386
385 888
386 385
386 387
386 889
387 386
387 388
387 890
388 387
388 389
388 891
389 388
389 390
389 892
390 389
390 391
390 893
391 390
391 392
391 894
392 391
392 393
392 895
393 392
393 394
393 896
394 393
394 395
394 897
395 394
395 396
395 898
396 395
396 397
396 899
397 396
397 398
397 900
398 397
398 399
398 901
399 398
399 400
399 902
400 399
400 401
400 903
401 400
401 402
401 904
402 401
402 403
402 905
403 402
403 404
403 906
404 403
404 405
404 907
405 404
405 406
405 908
406 405
406 407
406 909
407 406
407 408
407 910
408 407
408 409
408 911
409 408
409 410
409 912
410 409
410 411
410 913
411 410
411 412
411 914
412 411
412 413
412 915
413 412
413 414
413 916
414 413
414 415
414 917
415 414
415 416
415 918
416 415
416 417
416 919
417 416
417 418
417 920
418 417
418 419
418 921
419 418
419 420
419 922
420 419
420 421
420 923
421 420
421 422
421 924
422 421
422 423
422 925
423 422
423 424
423 926
424 423
424 425
424 927
425 424
425 426
425 928
426 425
426 427
426 929
427 426
427 428
427 930
428 427
428 429
428 931
429 428
429 430
429 932
430 429
430 431
430 933
431 430
431 432
431 934
432 431
432 433
432 935
433 432
433 434
433 936
434 433
434 435
434 937
435 434
435 436
435 938
436 435
436 437
436 939
437 436
437 438
437 940
438 437
438 439
438 941
439 438
439 440
439 942
440 439
440 441
440 943
441 440
441 442
441 944
442 441
442 443
442 945
443 442
443 444
443 946
444 443
444 445
444 947
445 444
445 446
445 948
446 445
446 447
446 949
447 446
447 448
447 950
448 447
448 449
448 951
449 448
449 450
449 952
450 449
450 451
450 953
451 450
451 452
451 954
452 451
452 453
452 955
453 452
453 454
453 956
454 453
454 455
454 957
455 454
455 456
455 958
456 455
456 457
456 959
457 456
457 458
457 960
458 457
458 459
458 961
459 458
459 460
459 962
460 459
460 461
460 963
461 460
461 462
461 964
462 461
462 463
462 965
463 462
463 464
463 966
464 463
464 465
464 967
465 464
465 466
465 968
466 465
466 467
466 969
467 466
467 468
467 970
468 467
468 469
468 971
469 468
469 470
469 972
470 469
470 471
470 973
471 470
471 472
471 974
472 471
472 473
472 975
473 472
473 474
473 976
474 473
474 475
474 977
475 474
475 476
475 978
476 475
476 477
476 979
477 476
477 478
477 980
478 477
478 479
478 981
479 478
479 480
479 982
480 479
480 481
480 983
481 480
481 482
481 984
482 481
482 483
482 985
483 482
483 484
483 986
484 483
484 485
484 987
485 484
485 486
485 988
486 485
486 487
486 989
487 486
487 488
487 990
488 487
488 489
488 991
489 488
489 490
489 992
490 489
490 491
490 993
491 490
491 492
491 994
492 491
492 493
492 995
493 492
493 494
493 996
494 493
494 495
494 997
495 494
495 496
495 998
496 495
496 497
496 999
497 496
497 498
497 1000
498 497
498 499
498 1001
499 498
499 500
499 1002
500 499
500 501
500 1003
501 500
501 502
501 1004
502 501
502 503
502 1005
503 1
503 502
503 1006
504 1
504 506
504 1005
505 2
505 507
505 1006
506 3
506 504
506 508
507 4
507 505
507 509
508 5
508 506
508 510
509 6
509 507
509 511
510 7
510 508
510 512
511 8
511 509
511 513
512 9
512 510
512 514
513 10
513 511
513 515
514 11
514 512
514 516
515 12
515 513
515 517
516 13
516 514
516 518
517 14
517 515
517 519
518 15
518 516
518 520
519 16
519 517
519 521
520 17
520 518
520 522
521 18
521 519
521 523
522 19
522 520
522 524
523 20
523 521
523 525
524 21
524 522
524 526
525 22
525 523
525 527
526 23
526 524
526 528
527 24
527 525
527 529
528 25
528 526
528 530
529 26
529 527
529 531
530 27
530 528
530 532
531 28
531 529
531 533
532 29
532 530
532 534
533 30
533 531
533 535
534 31
534 532
534 536
535 32
535 533
535 537
536 33
536 534
536 538
537 34
537 535
537 539
538 35
538 536
538 540
539 36
539 537
539 541
540 37
540 538
540 542
541 38
541 539
541 543
542 39
542 540
542 544
543 40
543 541
543 545
544 41
544 542
544 546
545 42
545 543
545 547
546 43
546 544
546 548
547 44
547 545
547 549
548 45
548 546
548 550
549 46
549 547
549 551
550 47
550 548
550 552
551 48
551 549
551 553
552 49
552 550
552 554
553 50
553 551
553 555
554 51
554 552
554 556
555 52
555 553
555 557
556 53
556 554
556 558
557 54
557 555
557 559
558 55
558 556
558 560
559 56
559 557
559 561
560 57
560 558
560 562
561 58
561 559
561 563
562 59
562 560
562 564
563 60
563 561
563 565
564 61
564 562
564 566
565 62
565 563
565 567
566 63
566 564
566 568
567 64
567 565
567 569
568 65
568 566
568 570
569 66
569 567
569 571
570 67
570 568
570 572
571 68
571 569
571 573
572 69
572 570
572 574
573 70
573 571
573 575
574 71
574 572
574 576
575 72
575 573
575 577
576 73
576 574
576 578
577 74
577 575
577 579
578 75
578 576
578 580
579 76
579 577
579 581
580 77
580 578
580 582
581 78
581 579
581 583
582 79
582 580
582 584
583 80
583 581
583 585
584 81
584 582
584 586
585 82
585 583
585 587
586 83
586 584
586 588
587 84
587 585
587 589
588 85
588 586
588 590
589 86
589 587
589 591
590 87
590 588
590 592
591 88
591 589
591 593
592 89
592 590
592 594
593 90
593 591
593 595
594 91
594 592
594 596
595 92
595 593
595 597
596 93
596 594
596 598
597 94
597 595
597 599
598 95
598 596
598 600
599 96
599 597
599 601
600 97
600 598
600 602
601 98
601 599
601 603
602 99
602 600
602 604
603 100
603 601
603 605
604 101
604 602
604 606
605 102
605 603
605 607
606 103
606 604
606 608
607 104
607 605
607 609
608 105
608 606
608 610
609 106
609 607
609 611
610 107
610 608
610 612
611 108
611 609
611 613
612 109
612 610
612 614
613 110
613 611
613 615
614 111
614 612
614 616
615 112
615 613
615 617
616 113
616 614
616 618
617 114
617 615
617 619
618 115
618 616
618 620
619 116
619 617
619 621
620 117
620 618
620 622
621 118
621 619
621 623
622 119
622 620
622 624
623 120
623 621
623 625
624 121
624 622
624 626
625 122
625 623
625 627
626 123
626 624
626 628
627 124
627 625
627 629
628 125
628 626
628 630
629 126
629 627
629 631
630 127
630 628
630 632
631 128
631 629
631 633
632 129
632 630
632 634
633 130
633 631
633 635
634 131
634 632
634 636
635 132
635 633
635 637
636 133
636 634
636 638
637 134
637 635
637 639
638 135
638 636
638 640
639 136
639 637
639 641
640 137
640 638
640 642
641 138
641 639
641 643
642 139
642 640
642 644
643 140
643 641
643 645
644 141
644 642
644 646
645 142
645 643
645 647
646 143
646 644
646 648
647 144
647 645
647 649
648 145
648 646
648 650
649 146
649 647
649 651
650 147
650 648
650 652
651 148
651 649
651 653
652 149
652 650
652 654
653 150
653 651
653 655
654 151
654 652
654 656
655 152
655 653
655 657
656 153
656 654
656 658
657 154
657 655
657 659
658 155
658 656
658 660
659 156
659 657
659 661
660 157
660 658
660 662
661 158
661 659
661 663
662 159
662 660
662 664
663 160
663 661
663 665
664 161
664 662
664 666
665 162
665 663
665 667
666 163
666 664
666 668
667 164
667 665
667 669
668 165
668 666
668 670
669 166
669 667
669 671
670 167
670 668
670 672
671 168
671 669
671 673
672 169
672 670
672 674
673 170
673 671
673 675
674 171
674 672
674 676
675 172
675 673
675 677
676 173
676 674
676 678
677 174
677 675
677 679
678 175
678 676
678 680
679 176
679 677
679 681
680 177
680 678
680 682
681 178
681 679
681 683
682 179
682 680
682 684
683 180
683 681
683 685
684 181
684 682
684 686
685 182
685 683
685 687
686 183
686 684
686 688
687 184
687 685
687 689
688 185
688 686
688 690
689 186
689 687
689 691
690 187
690 688
690 692
691 188
691 689
691 693
692 189
692 690
692 694
693 190
693 691
693 695
694 191
694 692
694 696
695 192
695 693
695 697
696 193
696 694
696 698
697 194
697 695
697 699
698 195
698 696
698 700
699 196
699 697
699 701
700 197
700 698
700 702
701 198
701 699
701 703
702 199
702 700
702 704
703 200
703 701
703 705
704 201
704 702
704 706
705 202
705 703
705 707
706 203
706 704
706 708
707 204
707 705
707 709
708 205
708 706
708 710
709 206
709 707
709 711
710 207
710 708
710 712
711 208
711 709
711 713
712 209
712 710
712 714
713 210
713 711
713 715
714 211
714 712
714 716
715 212
715 713
715 717
716 213
716 714
716 718
717 214
717 715
717 719
718 215
718 716
718 720
719 216
719 717
719 721
720 217
720 718
720 722
721 218
721 719
721 723
722 219
722 720
722 724
723 220
723 721
723 725
724 221
724 722
724 726
725 222
725 723
725 727
726 223
726 724
726 728
727 224
727 725
727 729
728 225
728 726
728 730
729 226
729 727
729 731
730 227
730 728
730 732
731 228
731 729
731 733
732 229
732 730
732 734
733 230
733 731
733 735
734 231
734 732
734 736
735 232
735 733
735 737
736 233
736 734
736 738
737 234
737 735
737 739
738 235
738 736
738 740
739 236
739 737
739 741
740 237
740 738
740 742
741 238
741 739
741 743
742 239
742 740
742 744
743 240
743 741
743 745
744 241
744 742
744 746
745 242
745 743
745 747
746 243
746 744
746 748
747 244
747 745
747 749
748 245
748 746
748 750
749 246
749 747
749 751
750 247
750 748
750 752
751 248
751 749
751 753
752 249
752 750
752 754
753 250
753 751
753 755
754 251
754 752
754 756
755 252
755 753
755 757
756 253
756 754
756 758
757 254
757 755
757 759
758 255
758 756
758 760
759 256
759 757
759 761
760 257
760 758
760 762
761 258
761 759
761 763
762 259
762 760
762 764
763 260
763 761
763 765
764 261
764 762
764 766
765 262
765 763
765 767
766 263
766 764
766 768
767 264
767 765
767 769
768 265
768 766
768 770
769 266
769 767
769 771
770 267
770 768
770 772
771 268
771 769
771 773
772 269
772 770
772 774
773 270
773 771
773 775
774 271
774 772
774 776
775 272
775 773
775 777
776 273
776 774
776 778
777 274
777 775
777 779
778 275
778 776
778 780
779 276
779 777
779 781
780 277
780 778
780 782
781 278
781 779
781 783
782 279
782 780
782 784
783 280
783 781
783 785
784 281
784 782
784 786
785 282
785 783
785 787
786 283
786 784
786 788
787 284
787 785
787 789
788 285
788 786
788 790
789 286
789 787
789 791
790 287
790 788
790 792
791 288
791 789
791 793
792 289
792 790
792 794
793 290
793 791
793 795
794 291
794 792
794 796
795 292
795 793
795 797
796 293
796 794
796 798
797 294
797 795
797 799
798 295
798 796
798 800
799 296
799 797
799 801
800 297
800 798
800 802
801 298
801 799
801 803
802 299
802 800
802 804
803 300
803 801
803 805
804 301
804 802
804 806
805 302
805 803
805 807
806 303
806 804
806 808
807 304
807 805
807 809
808 305
808 806
808 810
809 306
809 807
809 811
810 307
810 808
810 812
811 308
811 809
811 813
812 309
812 810
812 814
813 310
813 811
813 815
814 311
814 812
814 816
815 312
815 813
815 817
816 313
816 814
816 818
817 314
817 815
817 819
818 315
818 816
818 820
819 316
819 817
819 821
820 317
820 818
820 822
821 318
821 819
821 823
822 319
822 820
822 824
823 320
823 821
823 825
824 321
824 822
824 826
825 322
825 823
825 827
826 323
826 824
826 828
827 324
827 825
827 829
828 325
828 826
828 830
829 326
829 827
829 831
830 327
830 828
830 832
831 328
831 829
831 833
832 329
832 830
832 834
833 330
833 831
833 835
834 331
834 832
834 836
835 332
835 833
835 837
836 333
836 834
836 838
837 334
837 835
837 839
838 335
838 836
838 840
839 336
839 837
839 841
840 337
840 838
840 842
841 338
841 839
841 843
842 339
842 840
842 844
843 340
843 841
843 845
844 341
844 842
844 846
845 342
845 843
845 847
846 343
846 844
846 848
847 344
847 845
847 849
848 345
848 846
848 850
849 346
849 847
849 851
850 347
850 848
850 852
851 348
851 849
851 853
852 349
852 850
852 854
853 350
853 851
853 855
854 351
854 852
854 856
855 352
855 853
855 857
856 353
856 854
856 858
857 354
857 855
857 859
858 355
858 856
858 860
859 356
859 857
859 861
860 357
860 858
860 862
861 358
861 859
861 863
862 359
862 860
862 864
863 360
863 861
863 865
864 361
864 862
864 866
865 362
865 863
865 867
866 363
866 864
866 868
867 364
867 865
867 869
868 365
868 866
868 870
869 366
869 867
869 871
870 367
870 868
870 872
871 368
871 869
871 873
872 369
872 870
872 874
873 370
873 871
873 875
874 371
874 872
874 876
875 372
875 873
875 877
876 373
876 874
876 878
877 374
877 875
877 879
878 375
878 876
878 880
879 376
879 877
879 881
880 377
880 878
880 882
881 378
881 879
881 883
882 379
882 880
882 884
883 380
883 881
883 885
884 381
884 882
884 886
885 382
885 883
885 887
886 383
886 884
886 888
887 384
887 885
887 889
888 385
888 886
888 890
889 386
889 887
889 891
890 387
890 888
890 892
891 388
891 889
891 893
892 389
892 890
892 894
893 390
893 891
893 895
894 391
894 892
894 896
895 392
895 893
895 897
896 393
896 894
896 898
897 394
897 895
897 899
898 395
898 896
898 900
899 396
899 897
899 901
900 397
900 898
900 902
901 398
901 899
901 903
902 399
902 900
902 904
903 400
903 901
903 905
904 401
904 902
904 906
905 402
905 903
905 907
906 403
906 904
906 908
907 404
907 905
907 909
908 405
908 906
908 910
909 406
909 907
909 911
910 407
910 908
910 912
911 408
911 909
911 913
912 409
912 910
912 914
913 410
913 911
913 915
914 411
914 912
914 916
915 412
915 913
915 917
916 413
916 914
916 918
917 414
917 915
917 919
918 415
918 916
918 920
919 416
919 917
919 921
920 417
920 918
920 922
921 418
921 919
921 923
922 419
922 920
922 924
923 420
923 921
923 925
924 421
924 922
924 926
925 422
925 923
925 927
926 423
926 924
926 928
927 424
927 925
927 929
928 425
928 926
928 930
929 426
929 927
929 931
930 427
930 928
930 932
931 428
931 929
931 933
932 429
932 930
932 934
933 430
933 931
933 935
934 431
934 932
934 936
935 432
935 933
935 937
936 433
936 934
936 938
937 434
937 935
937 939
938 435
938 936
938 940
939 436
939 937
939 941
940 437
940 938
940 942
941 438
941 939
941 943
942 439
942 940
942 944
943 440
943 941
943 945
944 441
944 942
944 946
945 442
945 943
945 947
946 443
946 944
946 948
947 444
947 945
947 949
948 445
948 946
948 950
949 446
949 947
949 951
950 447
950 948
950 952
951 448
951 949
951 953
952 449
952 950
952 954
953 450
953 951
953 955
954 451
954 952
954 956
955 452
955 953
955 957
956 453
956 954
956 958
957 454
957 955
957 959
958 455
958 956
958 960
959 456
959 957
959 961
960 457
960 958
960 962
961 458
961 959
961 963
962 459
962 960
962 964
963 460
963 961
963 965
964 461
964 962
964 966
965 462
965 963
965 967
966 463
966 964
966 968
967 464
967 965
967 969
968 465
968 966
968 970
969 466
969 967
969 971
970 467
970 968
970 972
971 468
971 969
971 973
972 469
972 970
972 974
973 470
973 971
973 975
974 471
974 972
974 976
975 472
975 973
975 977
976 473
976 974
976 978
977 474
977 975
977 979
978 475
978 976
978 980
979 476
979 977
979 981
980 477
980 978
980 982
981 478
981 979
981 983
982 479
982 980
982 984
983 480
983 981
983 985
984 481
984 982
984 986
985 482
985 983
985 987
986 483
986 984
986 988
987 484
987 985
987 989
988 485
988 986
988 990
989 486
989 987
989 991
990 487
990 988
990 992
991 488
991 989
991 993
992 489
992 990
992 994
993 490
993 991
993 995
994 491
994 992
994 996
995 492
995 993
995 997
996 493
996 994
996 998
997 494
997 995
997 999
998 495
998 996
998 1000
999 496
999 997
999 1001
1000 497
1000 998
1000 1002
1001 498
1001 999
1001 1003
1002 499
1002 1000
1002 1004
1003 500
1003 1001
1003 1005
1004 501
1004 1002
1004 1006
1005 502
1005 504
1005 1003
1006 503
1006 505
1006 1004
467 997
997 467
-1
EOF